20806.19,33.47,38.02
20180.07,34.51,39.2
18882.94,36.88,41.9
20541.63,33.9,38.51
20941.36,33.26,37.78
20116.42,34.62,39.33
20478.36,34.01,38.63
21006.35,33.15,37.66
17703.72,39.34,44.69
17978.01,38.74,44.01
19975.28,34.86,39.61
17291.93,40.27,45.75
20920.76,33.29,37.82
20544.69,33.9,38.51
19632.0,35.47,40.3
19403.39,35.89,40.77
20315.94,34.28,38.94
18395.99,37.86,43.01
21460.45,32.45,36.87
22220.07,31.34,35.61
